Instance: Data/Instances_txt/inst_200_50_2.txt
SetUpTime: 3473.888761997223

Gurobi 10.0.1 (mac64[x86]) logging started Mo 14 Aug 14:28:26 2023

Set parameter LogFile to value "Output/MILP_RELAXED_inst_200_50_2_2023-08-14_09-45-28.txt"

Gurobi 10.0.1 (mac64[x86]) logging started Mo 14 Aug 14:28:26 2023

Set parameter LogFile to value "Output/MILP_RELAXED_inst_200_50_2_2023-08-14_09-45-28.txt"
Gurobi Optimizer version 10.0.1 build v10.0.1rc0 (mac64[x86])

CPU model: Intel(R) Core(TM) i5-1038NG7 CPU @ 2.00GHz
Thread count: 4 physical cores, 8 logical processors, using up to 8 threads

Optimize a model with 401 rows, 881217 columns and 10517895 nonzeros
Model fingerprint: 0x47a1ced7
Coefficient statistics:
  Matrix range     [1e+00, 1e+00]
  Objective range  [2e+00, 2e+04]
  Bounds range     [1e+00, 1e+00]
  RHS range        [1e+00, 1e+00]
Presolve time: 4.60s
Presolved: 401 rows, 881217 columns, 10517895 nonzeros

Concurrent LP optimizer: dual simplex and barrier
Showing barrier log only...

Ordering time: 0.00s

Barrier statistics:
 AA' NZ     : 5.245e+04
 Factor NZ  : 8.060e+04 (roughly 350 MB of memory)
 Factor Ops : 2.157e+07 (less than 1 second per iteration)
 Threads    : 3

                  Objective                Residual
Iter       Primal          Dual         Primal    Dual     Compl     Time
   0   4.87603281e+08  0.00000000e+00  1.62e+04 0.00e+00  1.47e+00     6s
   1   8.39801690e+07 -7.15640013e+04  2.68e+03 4.26e-14  2.50e-01     7s
   2   3.90789855e+05 -6.99172709e+04  8.72e+00 5.68e-14  1.23e-03     7s
   3   1.46783775e+05  1.07825023e+04  1.27e+00 5.68e-14  3.05e-04     8s
   4   1.00242518e+05  2.30342224e+04  2.04e-01 6.39e-14  1.70e-04     8s
   5   9.17639540e+04  5.44232569e+04  1.02e-01 5.68e-14  7.96e-05     9s
   6   8.63674813e+04  6.09132117e+04  6.80e-02 6.39e-14  5.39e-05     9s
   7   8.48503512e+04  6.30767080e+04  6.11e-02 5.68e-14  4.59e-05     9s
   8   7.71471382e+04  6.50872245e+04  2.49e-02 5.68e-14  2.57e-05    10s
   9   7.50761831e+04  6.63394454e+04  1.87e-02 4.26e-14  1.86e-05    10s
  10   7.19958774e+04  6.70704083e+04  8.59e-03 5.68e-14  1.05e-05    11s
  11   6.92845898e+04  6.73273890e+04  2.39e-03 7.11e-14  4.23e-06    11s
  12   6.82386190e+04  6.74053892e+04  6.91e-04 5.68e-14  1.82e-06    12s
  13   6.80853984e+04  6.74533018e+04  5.00e-04 5.68e-14  1.38e-06    12s
  14   6.79202856e+04  6.75239991e+04  3.12e-04 5.68e-14  8.65e-07    13s
  15   6.77624884e+04  6.75415581e+04  1.60e-04 5.68e-14  4.83e-07    13s
  16   6.76775925e+04  6.75616307e+04  8.26e-05 4.97e-14  2.53e-07    13s
  17   6.76188846e+04  6.75660470e+04  3.27e-05 5.68e-14  1.16e-07    14s
  18   6.76118958e+04  6.75714492e+04  2.70e-05 4.97e-14  8.85e-08    14s
  19   6.75921216e+04  6.75741099e+04  1.13e-05 5.68e-14  3.94e-08    15s
  20   6.75818971e+04  6.75755930e+04  3.59e-06 4.26e-14  1.38e-08    15s
  21   6.75774505e+04  6.75765160e+04  3.58e-07 4.26e-14  2.06e-09    16s
  22   6.75769598e+04  6.75767082e+04  7.25e-08 5.68e-14  5.54e-10    16s
  23   6.75768460e+04  6.75767396e+04  1.44e-08 5.68e-14  2.35e-10    16s
  24   6.75768279e+04  6.75767817e+04  5.33e-09 4.26e-14  1.02e-10    17s
  25   6.75768178e+04  6.75768004e+04  1.29e-09 4.26e-14  3.84e-11    17s
  26   6.75768151e+04  6.75768144e+04  5.23e-10 5.68e-14  1.51e-12    18s
  27   6.75768147e+04  6.75768147e+04  7.57e-11 5.68e-14  1.78e-14    18s

Barrier solved model in 27 iterations and 18.26 seconds (13.72 work units)
Optimal objective 6.75768147e+04

Crossover log...

     101 DPushes remaining with DInf 0.0000000e+00                18s
       2 DPushes remaining with DInf 0.0000000e+00                20s

     515 PPushes remaining with PInf 0.0000000e+00                20s
       0 PPushes remaining with PInf 0.0000000e+00                20s

  Push phase complete: Pinf 0.0000000e+00, Dinf 1.0601964e-11     20s


Solved with barrier
Iteration    Objective       Primal Inf.    Dual Inf.      Time
     617    6.7576815e+04   0.000000e+00   0.000000e+00     21s

Solved in 617 iterations and 20.99 seconds (15.17 work units)
Optimal objective  6.757681473e+04

User-callback calls 1160, time in user-callback 0.00 sec

=========================

OUTPUT STATISTICS
Relaxed: true
Time since start: 3843.45147895813
SetUpTime: 3473.888761997223
Objective value LB: 67576.81473062512
Objective value UB: 73555.0
Solving time LB: 46.333786964416504
Solving time UB: 245.5177719593048
Gap: 0.08127503595098744
